c CNF file corresponding to a (partial) station packing problem.
p cnf 2837 229
1 2 3 4 5 6 7 8 9 10 11 12 13 14 0
-1 -2 0
-1 -3 0
-1 -4 0
-1 -5 0
-1 -6 0
-1 -7 0
-1 -8 0
-1 -9 0
-1 -10 0
-1 -11 0
-1 -12 0
-1 -13 0
-1 -14 0
-2 -3 0
-2 -4 0
-2 -5 0
-2 -6 0
-2 -7 0
-2 -8 0
-2 -9 0
-2 -10 0
-2 -11 0
-2 -12 0
-2 -13 0
-2 -14 0
-3 -4 0
-3 -5 0
-3 -6 0
-3 -7 0
-3 -8 0
-3 -9 0
-3 -10 0
-3 -11 0
-3 -12 0
-3 -13 0
-3 -14 0
-4 -5 0
-4 -6 0
-4 -7 0
-4 -8 0
-4 -9 0
-4 -10 0
-4 -11 0
-4 -12 0
-4 -13 0
-4 -14 0
-5 -6 0
-5 -7 0
-5 -8 0
-5 -9 0
-5 -10 0
-5 -11 0
-5 -12 0
-5 -13 0
-5 -14 0
-6 -7 0
-6 -8 0
-6 -9 0
-6 -10 0
-6 -11 0
-6 -12 0
-6 -13 0
-6 -14 0
-7 -8 0
-7 -9 0
-7 -10 0
-7 -11 0
-7 -12 0
-7 -13 0
-7 -14 0
-8 -9 0
-8 -10 0
-8 -11 0
-8 -12 0
-8 -13 0
-8 -14 0
-9 -10 0
-9 -11 0
-9 -12 0
-9 -13 0
-9 -14 0
-10 -11 0
-10 -12 0
-10 -13 0
-10 -14 0
-11 -12 0
-11 -13 0
-11 -14 0
-12 -13 0
-12 -14 0
-13 -14 0
2821 2822 2823 2824 2825 2826 2827 2828 2829 2830 2831 2832 2833 2834 2835 2836 2837 0
-2821 -2822 0
-2821 -2823 0
-2821 -2824 0
-2821 -2825 0
-2821 -2826 0
-2821 -2827 0
-2821 -2828 0
-2821 -2829 0
-2821 -2830 0
-2821 -2831 0
-2821 -2832 0
-2821 -2833 0
-2821 -2834 0
-2821 -2835 0
-2821 -2836 0
-2821 -2837 0
-2822 -2823 0
-2822 -2824 0
-2822 -2825 0
-2822 -2826 0
-2822 -2827 0
-2822 -2828 0
-2822 -2829 0
-2822 -2830 0
-2822 -2831 0
-2822 -2832 0
-2822 -2833 0
-2822 -2834 0
-2822 -2835 0
-2822 -2836 0
-2822 -2837 0
-2823 -2824 0
-2823 -2825 0
-2823 -2826 0
-2823 -2827 0
-2823 -2828 0
-2823 -2829 0
-2823 -2830 0
-2823 -2831 0
-2823 -2832 0
-2823 -2833 0
-2823 -2834 0
-2823 -2835 0
-2823 -2836 0
-2823 -2837 0
-2824 -2825 0
-2824 -2826 0
-2824 -2827 0
-2824 -2828 0
-2824 -2829 0
-2824 -2830 0
-2824 -2831 0
-2824 -2832 0
-2824 -2833 0
-2824 -2834 0
-2824 -2835 0
-2824 -2836 0
-2824 -2837 0
-2825 -2826 0
-2825 -2827 0
-2825 -2828 0
-2825 -2829 0
-2825 -2830 0
-2825 -2831 0
-2825 -2832 0
-2825 -2833 0
-2825 -2834 0
-2825 -2835 0
-2825 -2836 0
-2825 -2837 0
-2826 -2827 0
-2826 -2828 0
-2826 -2829 0
-2826 -2830 0
-2826 -2831 0
-2826 -2832 0
-2826 -2833 0
-2826 -2834 0
-2826 -2835 0
-2826 -2836 0
-2826 -2837 0
-2827 -2828 0
-2827 -2829 0
-2827 -2830 0
-2827 -2831 0
-2827 -2832 0
-2827 -2833 0
-2827 -2834 0
-2827 -2835 0
-2827 -2836 0
-2827 -2837 0
-2828 -2829 0
-2828 -2830 0
-2828 -2831 0
-2828 -2832 0
-2828 -2833 0
-2828 -2834 0
-2828 -2835 0
-2828 -2836 0
-2828 -2837 0
-2829 -2830 0
-2829 -2831 0
-2829 -2832 0
-2829 -2833 0
-2829 -2834 0
-2829 -2835 0
-2829 -2836 0
-2829 -2837 0
-2830 -2831 0
-2830 -2832 0
-2830 -2833 0
-2830 -2834 0
-2830 -2835 0
-2830 -2836 0
-2830 -2837 0
-2831 -2832 0
-2831 -2833 0
-2831 -2834 0
-2831 -2835 0
-2831 -2836 0
-2831 -2837 0
-2832 -2833 0
-2832 -2834 0
-2832 -2835 0
-2832 -2836 0
-2832 -2837 0
-2833 -2834 0
-2833 -2835 0
-2833 -2836 0
-2833 -2837 0
-2834 -2835 0
-2834 -2836 0
-2834 -2837 0
-2835 -2836 0
-2835 -2837 0
-2836 -2837 0
